3375 9485
35189 10575
59569 30520
65207 36201
24684 17118
8339 33461
27844 53880
44543 57327
40119 34416
48563 45604
14512 48785
49062 11330
55844 53275
5306 31475
116 28336
30542 11122
1759 63193
9566 56874
59982 13526
15491 57368
6186 14155
28984 20789
35263 59636
46180 22464
39412 60869
35887 56198
49698 13956
1321 2996
64489 61893
1375 49824
25315 25982
37600 25008
57199 55331
10564 17252
49327 25513
45875 45225
47320 54705
17175 19152
36325 34777
19952 0
40637 42832
61240 15695
42052 26813
43007 36536
30802 9421
29519 28210
37157 39080
5172 25473
47091 49672
42810 34370
17972 61466
25569 16396
28512 957
36471 11369
15155 46618
54621 56960
2538 9010
46258 35732
12682 11824
21369 42176
36633 44138
38807 28552
57996 49401
9 18922
19072 50201
43662 49436
11731 58152
27395 9034
30327 13633
9795 15828
48355 19820
6589 15759
32462 56092
11573 10587
6363 65443
40209 25355
65010 36341
